NAME : P = NP
TYPE : TSP
DIMENSION : 19
EDGE_WEIGHT_TYPE : EUC_2D
NODE_COORD_SECTION
0 171 87
1 268 236
2 218 797
3 44 53
4 25 144
5 61 122
6 53 190
7 93 66
8 244 774
9 444 257
10 124 9
11 25 268
12 197 91
13 320 890
14 424 45
15 152 834
16 10 600
17 89 595
18 290 199